NAME : u1060
COMMENT : Drilling
TYPE : TOUR
DIMENSION : 1060
TOUR_LENGTH : 236540
ERROR : 0.0555392
TOUR_SECTION
1054
1051
1050
31
28
27
26
1049
1043
1042
1048
1047
1045
1044
1046
1041
1040
1039
1038
1037
1036
1030
1031
1032
1035
1034
1033
56
55
57
58
54
53
52
51
50
49
48
45
44
43
42
41
39
38
37
36
40
34
35
33
32
25
24
23
22
21
20
83
99
100
101
97
98
93
92
89
90
91
87
86
85
84
46
47
82
88
81
77
78
79
80
76
75
74
73
72
71
70
69
68
67
66
65
64
62
61
59
60
63
1028
1029
1027
1026
1025
1020
1019
1018
1017
1016
1015
1014
1013
1012
1011
1010
1009
1021
1006
1024
1023
1022
1005
1003
1004
1007
1008
1000
999
998
1001
1002
997
996
995
994
993
992
991
990
989
988
987
986
984
985
983
982
980
979
978
977
976
981
973
972
971
969
970
975
974
964
962
961
960
957
958
959
956
963
949
955
954
950
951
952
953
948
946
945
944
947
965
968
967
966
942
943
941
940
939
935
936
937
934
933
932
931
928
930
929
927
926
925
924
923
922
921
920
918
919
917
916
915
914
913
912
911
907
910
909
908
906
904
905
903
902
901
900
899
898
897
896
895
894
893
891
96
95
94
889
890
892
888
882
883
885
886
884
881
880
879
877
878
876
875
874
873
872
871
870
869
868
867
866
214
213
215
865
864
863
862
861
860
219
858
857
859
856
855
224
225
226
223
222
221
220
218
217
216
208
211
212
210
209
205
207
206
258
259
260
261
262
257
256
255
253
254
252
251
249
250
248
247
246
244
245
243
242
839
240
241
237
238
239
235
234
233
232
231
236
230
229
227
228
852
853
854
851
850
849
848
847
846
845
844
843
842
841
840
838
818
819
836
835
837
938
834
833
832
827
828
826
831
829
830
824
825
823
822
821
820
817
816
814
813
811
810
809
808
807
805
806
812
333
331
330
332
334
335
336
337
340
339
338
327
328
329
324
323
322
321
320
325
326
351
353
352
349
350
319
304
318
317
305
815
316
315
306
307
314
313
312
308
303
302
300
301
299
297
298
296
295
294
293
292
289
290
291
288
287
286
311
309
310
285
284
283
282
281
280
279
278
277
275
388
389
387
382
381
380
379
378
377
376
375
383
386
385
384
373
374
372
371
370
369
368
367
366
365
364
363
362
358
359
360
361
357
354
348
355
356
347
346
345
344
343
341
342
804
803
802
801
800
799
798
797
796
795
794
793
792
791
790
789
788
787
786
785
784
782
781
783
780
779
778
774
773
772
771
775
770
768
769
777
776
767
766
765
764
763
762
761
760
759
758
757
756
754
753
755
752
751
750
749
748
747
746
745
744
743
742
741
740
739
738
544
737
736
575
574
573
572
571
567
565
566
570
558
557
559
560
562
564
563
561
556
555
459
460
554
553
552
551
550
548
547
545
546
543
542
541
537
536
535
534
533
538
540
539
549
528
529
530
526
527
478
525
531
532
524
523
522
521
520
516
515
514
513
504
511
512
505
510
509
508
507
506
498
499
500
501
497
494
493
492
491
490
488
489
487
486
485
484
483
495
496
502
503
517
519
518
482
481
480
479
477
476
475
474
471
473
472
470
469
465
466
467
468
464
463
462
461
458
456
455
454
453
452
451
449
457
448
446
447
441
440
442
443
444
599
598
445
450
597
596
595
594
593
592
591
693
694
696
590
589
588
568
569
587
586
585
584
583
582
581
580
579
578
576
577
735
734
733
732
731
729
730
728
727
726
725
724
723
722
699
698
700
697
695
692
691
690
703
704
702
701
705
706
707
721
720
719
708
709
710
711
712
713
718
717
716
714
715
677
678
676
675
679
680
681
689
688
687
686
685
684
683
682
670
674
673
671
672
669
668
642
667
666
665
664
663
662
661
660
659
658
657
656
655
654
653
652
651
650
649
648
647
646
645
644
643
641
640
639
638
637
636
635
634
633
632
631
630
629
628
626
627
625
624
622
621
620
619
623
617
616
615
614
613
618
612
611
610
609
607
608
606
605
603
604
602
601
600
436
437
438
439
434
435
433
432
431
430
428
427
429
416
417
415
413
418
426
425
424
423
422
414
412
419
421
420
411
410
409
408
407
406
405
404
403
402
401
400
399
398
397
396
395
394
393
392
391
390
273
274
276
268
272
269
270
271
267
266
265
264
263
195
196
197
199
200
201
202
203
204
198
194
193
192
191
190
189
188
187
186
184
185
183
182
181
180
179
178
177
176
175
174
173
172
171
170
169
168
167
166
163
162
161
160
158
159
165
164
157
156
155
154
153
152
151
150
149
148
147
146
145
144
143
142
141
140
139
138
137
136
135
132
134
133
130
131
119
115
114
112
111
113
887
109
108
110
116
118
117
120
128
123
127
129
124
125
126
7
8
121
122
104
105
106
107
102
103
14
15
17
16
18
19
13
12
11
29
30
1053
1052
10
9
1058
1059
3
4
6
5
1
2
0
1057
1056
1055
-1
EOF
